c preprocessed version of munin4-wpp, 55 vertices, 156 edges
p td 55 156
1 0
7 0
14 0
1 2
5 1
1 15
8 1
7 1
14 1
2 3
50 2
7 2
14 2
4 3
50 3
10 3
5 4
6 4
10 4
9 4
5 6
7 5
14 5
7 8
7 11
7 16
7 24
7 33
7 38
7 43
7 44
7 45
7 13
12 7
7 14
48 7
8 9
8 49
14 8
9 10
49 9
12 9
11 10
12 10
12 11
14 11
12 13
12 48
12 14
14 13
14 15
14 16
14 24
14 33
14 45
48 14
17 16
16 18
17 18
19 17
17 27
20 17
19 18
18 47
19 20
19 27
19 47
20 21
20 27
20 29
26 20
30 20
22 21
47 21
27 21
23 22
22 47
28 22
24 23
28 23
25 23
25 24
25 26
28 25
29 25
26 27
28 26
28 29
30 29
30 31
30 40
30 36
30 35
30 45
30 46
41 30
42 30
32 31
31 40
44 31
32 33
32 34
44 32
33 34
34 35
43 34
35 36
43 35
37 36
41 36
38 37
41 37
42 37
38 39
42 38
39 40
41 39
42 39
41 40
41 42
43 44
45 46
51 54
51 52
51 17
51 25
51 46
51 53
51 42
52 54
52 0
52 15
52 50
52 53
52 6
52 11
52 49
52 13
52 48
53 54
53 0
53 15
53 50
53 6
53 49
54 17
54 25
54 46
54 0
54 50
54 6
54 11
54 42
54 49
54 13
54 48
